\* Source Pyomo model name=unknown *\

min 
OBJ:
+1 R

s.t.

c_u_Constraint1_:
+1 B(109)
+1 B(111)
+1 B(113)
+1 B(115)
+1 B(117)
+1 B(119)
+1 B(121)
+1 B(125)
+1 B(127)
<= 0.15

c_u_Constraint2_:
+0 ONE_VAR_CONSTANT
<= 0.04

c_u_Constraint3_:
+1 F(109)
+1 F(111)
+1 F(113)
+1 F(115)
+1 F(117)
+1 F(119)
+1 F(121)
+1 F(125)
+1 F(127)
<= 1.0

c_e_Constraint4(109)_:
+ [
+1 B(109) * b(109)
]
= 1

c_e_Constraint4(111)_:
+ [
+1 B(111) * b(111)
]
= 1

c_e_Constraint4(113)_:
+ [
+1 B(113) * b(113)
]
= 1

c_e_Constraint4(115)_:
+ [
+1 B(115) * b(115)
]
= 1

c_e_Constraint4(117)_:
+ [
+1 B(117) * b(117)
]
= 1

c_e_Constraint4(119)_:
+ [
+1 B(119) * b(119)
]
= 1

c_e_Constraint4(121)_:
+ [
+1 B(121) * b(121)
]
= 1

c_e_Constraint4(125)_:
+ [
+1 B(125) * b(125)
]
= 1

c_e_Constraint4(127)_:
+ [
+1 B(127) * b(127)
]
= 1

c_e_Constraint5(109)_:
+ [
+1 bB(109) * bb(109)
]
= 1

c_e_Constraint5(111)_:
+ [
+1 bB(111) * bb(111)
]
= 1

c_e_Constraint5(113)_:
+ [
+1 bB(113) * bb(113)
]
= 1

c_e_Constraint5(115)_:
+ [
+1 bB(115) * bb(115)
]
= 1

c_e_Constraint5(117)_:
+ [
+1 bB(117) * bb(117)
]
= 1

c_e_Constraint5(119)_:
+ [
+1 bB(119) * bb(119)
]
= 1

c_e_Constraint5(121)_:
+ [
+1 bB(121) * bb(121)
]
= 1

c_e_Constraint5(125)_:
+ [
+1 bB(125) * bb(125)
]
= 1

c_e_Constraint5(127)_:
+ [
+1 bB(127) * bb(127)
]
= 1

c_e_Constraint6(109)_:
+ [
+1 F(109) * f(109)
]
= 1

c_e_Constraint6(111)_:
+ [
+1 F(111) * f(111)
]
= 1

c_e_Constraint6(113)_:
+ [
+1 F(113) * f(113)
]
= 1

c_e_Constraint6(115)_:
+ [
+1 F(115) * f(115)
]
= 1

c_e_Constraint6(117)_:
+ [
+1 F(117) * f(117)
]
= 1

c_e_Constraint6(119)_:
+ [
+1 F(119) * f(119)
]
= 1

c_e_Constraint6(121)_:
+ [
+1 F(121) * f(121)
]
= 1

c_e_Constraint6(125)_:
+ [
+1 F(125) * f(125)
]
= 1

c_e_Constraint6(127)_:
+ [
+1 F(127) * f(127)
]
= 1

c_u_Constraint8(109)_:
+0.4066783074255814 f(109)
<= 29.0

c_u_Constraint8(111)_:
+4.774077744253507 f(111)
<= 120.0

c_u_Constraint8(113)_:
+8.371177325261183 f(113)
<= 497.0

c_u_Constraint8(115)_:
+12.2444636737566 f(115)
<= 791.0

c_u_Constraint8(117)_:
+53.53844955660028 f(117)
<= 1386.0

c_u_Constraint8(119)_:
+95.61036147175405 f(119)
<= 1425.0

c_u_Constraint8(121)_:
+3.0621220676824237 f(121)
<= 73.0

c_u_Constraint8(125)_:
+169.19048334942795 f(125)
<= 1737.0

c_u_Constraint8(127)_:
+108.84843549392633 f(127)
<= 727.0

c_e_Constraint9(109)_:
+1 r(109)
= 0

c_e_Constraint9(111)_:
+1 r(111)
= 0

c_e_Constraint9(113)_:
+1 r(113)
= 0

c_e_Constraint9(115)_:
+1 r(115)
= 0

c_e_Constraint9(117)_:
+1 r(117)
= 0

c_e_Constraint9(119)_:
+1 r(119)
= 0

c_e_Constraint9(121)_:
+1 r(121)
= 0

c_e_Constraint9(125)_:
+1 r(125)
= 0

c_e_Constraint9(127)_:
+1 r(127)
= 0

c_u_Constraint10(109)_:
-1 R
+1 r(109)
<= 0

c_u_Constraint10(111)_:
-1 R
+1 r(111)
<= 0

c_u_Constraint10(113)_:
-1 R
+1 r(113)
<= 0

c_u_Constraint10(115)_:
-1 R
+1 r(115)
<= 0

c_u_Constraint10(117)_:
-1 R
+1 r(117)
<= 0

c_u_Constraint10(119)_:
-1 R
+1 r(119)
<= 0

c_u_Constraint10(121)_:
-1 R
+1 r(121)
<= 0

c_u_Constraint10(125)_:
-1 R
+1 r(125)
<= 0

c_u_Constraint10(127)_:
-1 R
+1 r(127)
<= 0

bounds
   1 <= ONE_VAR_CONSTANT <= 1
   0 <= R <= 8
   0.0001 <= B(109) <= 0.15
   0.0001 <= B(111) <= 0.15
   0.0001 <= B(113) <= 0.15
   0.0001 <= B(115) <= 0.15
   0.0001 <= B(117) <= 0.15
   0.0001 <= B(119) <= 0.15
   0.0001 <= B(121) <= 0.15
   0.0001 <= B(125) <= 0.15
   0.0001 <= B(127) <= 0.15
   0.0001 <= bB(109) <= 0.04
   0.0001 <= bB(111) <= 0.04
   0.0001 <= bB(113) <= 0.04
   0.0001 <= bB(115) <= 0.04
   0.0001 <= bB(117) <= 0.04
   0.0001 <= bB(119) <= 0.04
   0.0001 <= bB(121) <= 0.04
   0.0001 <= bB(125) <= 0.04
   0.0001 <= bB(127) <= 0.04
   0.0001 <= F(109) <= 1.0
   0.0001 <= F(111) <= 1.0
   0.0001 <= F(113) <= 1.0
   0.0001 <= F(115) <= 1.0
   0.0001 <= F(117) <= 1.0
   0.0001 <= F(119) <= 1.0
   0.0001 <= F(121) <= 1.0
   0.0001 <= F(125) <= 1.0
   0.0001 <= F(127) <= 1.0
   6.666666666666667 <= b(109) <= 1000.0
   6.666666666666667 <= b(111) <= 1000.0
   6.666666666666667 <= b(113) <= 1000.0
   6.666666666666667 <= b(115) <= 1000.0
   6.666666666666667 <= b(117) <= 1000.0
   6.666666666666667 <= b(119) <= 1000.0
   6.666666666666667 <= b(121) <= 1000.0
   6.666666666666667 <= b(125) <= 1000.0
   6.666666666666667 <= b(127) <= 1000.0
   25.0 <= bb(109) <= 1000.0
   25.0 <= bb(111) <= 1000.0
   25.0 <= bb(113) <= 1000.0
   25.0 <= bb(115) <= 1000.0
   25.0 <= bb(117) <= 1000.0
   25.0 <= bb(119) <= 1000.0
   25.0 <= bb(121) <= 1000.0
   25.0 <= bb(125) <= 1000.0
   25.0 <= bb(127) <= 1000.0
   1.0 <= f(109) <= 1000.0
   1.0 <= f(111) <= 1000.0
   1.0 <= f(113) <= 1000.0
   1.0 <= f(115) <= 1000.0
   1.0 <= f(117) <= 1000.0
   1.0 <= f(119) <= 1000.0
   1.0 <= f(121) <= 1000.0
   1.0 <= f(125) <= 1000.0
   1.0 <= f(127) <= 1000.0
   0 <= r(109) <= 8
   0 <= r(111) <= 8
   0 <= r(113) <= 8
   0 <= r(115) <= 8
   0 <= r(117) <= 8
   0 <= r(119) <= 8
   0 <= r(121) <= 8
   0 <= r(125) <= 8
   0 <= r(127) <= 8
general
  R
end
